data/solutions/recovery/degenerate/moderate/flexible/degenerate_moderate_instance1/46.sol
Elapsed time: 0.09
Upper bound: 237413.0
Planning weighted value: 1658580.0
C[0]=237413.0
C[1]=237185.0
C[2]=236538.0
y[0]=0
y[1]=2
y[2]=0
y[3]=1
y[4]=1
y[5]=2
y[6]=2
y[7]=1
y[8]=0
y[9]=1
y[10]=2
y[11]=1
y[12]=1
y[13]=0
y[14]=2
y[15]=0
y[16]=0
y[17]=1
y[18]=2
y[19]=0
y[20]=2
y[21]=1
