data/solutions/recovery/degenerate/moderate/flexible/degenerate_moderate_instance1/46.log

Log started (V12.6.3.0) Sat Apr 21 11:02:01 2018

New value for default parallel thread count: 1

Problem '/tmp/tmpFL2URm.pyomo.lp' read.
Read time = 0.00 sec. (0.02 ticks)

Problem name         : /tmp/tmpFL2URm.pyomo.lp
Objective sense      : Minimize
Variables            :      71  [Nneg: 1,  Binary: 66,  General Integer: 4]
Objective nonzeros   :       1
Linear constraints   :      51  [Less: 25,  Equal: 26]
  Nonzeros           :    1019
  RHS nonzeros       :      45

Variables            : Min LB: 0.000000         Max UB: 1.000000       
Objective nonzeros   : Min   : 1.000000         Max   : 1.000000       
Linear constraints   :
  Nonzeros           : Min   : 1.000000         Max   : 93707.00       
  RHS nonzeros       : Min   : 1.000000         Max   : 3.000000       
Tried aggregator 2 times.
MIP Presolve eliminated 22 rows and 3 columns.
Aggregator did 4 substitutions.
Reduced MIP has 25 rows, 64 columns, and 167 nonzeros.
Reduced MIP has 63 binaries, 1 generals, 0 SOSs, and 0 indicators.
Presolve time = 0.00 sec. (0.42 ticks)
Found incumbent of value 711136.000000 after 0.00 sec. (0.63 ticks)
Probing time = 0.00 sec. (0.04 ticks)
Cover probing fixed 0 vars, tightened 6 bounds.
Tried aggregator 1 time.
Reduced MIP has 25 rows, 64 columns, and 167 nonzeros.
Reduced MIP has 63 binaries, 1 generals, 0 SOSs, and 0 indicators.
Presolve time = 0.00 sec. (0.10 ticks)
Probing time = 0.00 sec. (0.03 ticks)
Clique table members: 21.
MIP emphasis: balance optimality and feasibility.
MIP search method: dynamic search.
Parallel mode: none, using 1 thread.
Root relaxation solution time = 0.00 sec. (0.05 ticks)

        Nodes                                         Cuts/
   Node  Left     Objective  IInf  Best Integer    Best Bound    ItCnt     Gap

*     0+    0                       711136.0000    93707.0000            86.82%
      0     0   237045.3333     5   711136.0000   237045.3333        4   66.67%
*     0+    0                       265150.0000   237045.3333            10.60%
      0     0   237046.0000     3   265150.0000      Fract: 1        8   10.60%
*     0+    0                       261991.0000   237046.0000             9.52%
      0     0   237046.0000    10   261991.0000       Cuts: 8       20    9.52%
*     0+    0                       243224.0000   237046.0000             2.54%
      0     0   237046.0000     9   243224.0000    MIRcuts: 3       31    2.54%
*     0+    0                       241759.0000   237046.0000             1.95%
      0     2   237046.0000     9   241759.0000   237046.0000       31    1.95%
Elapsed time = 0.01 sec. (2.59 ticks, tree = 0.01 MB, solutions = 4)
*    45    17      integral     0   239747.0000   237046.0000      176    1.13%
*   133    32      integral     0   238349.0000   237046.0000      469    0.55%
*   281    42      integral     0   237668.0000   237046.0000      912    0.26%
*   500   102      integral     0   237551.0000   237046.0000     2066    0.21%
*   530+   97                       237413.0000   237046.0000             0.15%

Cover cuts applied:  51
Mixed integer rounding cuts applied:  2

Root node processing (before b&c):
  Real time             =    0.01 sec. (2.59 ticks)
Sequential b&c:
  Real time             =    0.06 sec. (45.13 ticks)
                          ------------
Total (root+branch&cut) =    0.06 sec. (47.72 ticks)

Solution pool: 9 solutions saved.

MIP - Integer optimal solution:  Objective =  2.3741300000e+05
Solution time =    0.06 sec.  Iterations = 4806  Nodes = 979
Deterministic time = 47.72 ticks  (744.12 ticks/sec)


Incumbent solution written to file '/tmp/tmp_gLPdr.cplex.sol'.
